CUSTOMERS : 10
VEHICLES : 4
0 235 140 251 288 52 97 131 154 235 185 
235 0 373 153 505 244 165 150 342 469 359 
140 373 0 382 161 157 218 265 115 97 202 
251 153 382 0 537 227 237 120 397 469 285 
288 505 161 537 0 314 342 418 169 117 351 
52 244 157 227 314 0 135 113 198 243 139 
97 165 218 237 342 135 0 133 178 314 273 
131 150 265 120 418 113 133 0 278 355 210 
154 342 115 397 169 198 178 278 0 184 295 
235 469 97 469 117 243 314 355 184 0 244 
185 359 202 285 351 139 273 210 295 244 0 
